clingo version 5.5.2
Reading from stdin
UNKNOWN

INTERRUPTED  : 1
Models       : 0+
Calls        : 1
Time         : 4943.468s (Solving: 0.00s 1st Model: 0.00s Unsat: 0.00s)
CPU Time     : 1266.016s

Choices      : 0       
Conflicts    : 0        (Analyzed: 0)
Restarts     : 0       
Problems     : 0        (Average Length: 0.00 Splits: 0)
Lemmas       : 0        (Deleted: 0)
  Binary     : 0        (Ratio:   0.00%)
  Ternary    : 0        (Ratio:   0.00%)
  Conflict   : 0        (Average Length:    0.0 Ratio:   0.00%) 
  Loop       : 0        (Average Length:    0.0 Ratio:   0.00%) 
  Other      : 0        (Average Length:    0.0 Ratio:   0.00%) 
Backjumps    : 0        (Average:  0.00 Max:   0 Sum:      0)
  Executed   : 0        (Average:  0.00 Max:   0 Sum:      0 Ratio:   0.00%)
  Bounded    : 0        (Average:  0.00 Max:   0 Sum:      0 Ratio: 100.00%)

Rules        : 0       
Atoms        : 0       
Bodies       : 0       
Tight        : Yes
Variables    : 78188233 (Eliminated:    0 Frozen:    0)
Constraints  : 0        (Binary:   0.0% Ternary:   0.0% Other:   0.0%)

